<instance format="XCSP3" type="CSP">
  <variables>
    <var id="x0"> 3 11 </var>
    <var id="x1"> 3 4 8 17 </var>
    <var id="x2"> 4 6 8 17 </var>
    <var id="x3"> 3 7 8 </var>
    <var id="x4"> 3 5 8 17 </var>
    <var id="x5"> 4 6 8 11 17 </var>
    <var id="x6"> 4 5 7 11 </var>
    <var id="x7"> 3..7 </var>
    <var id="x8"> 1 2 14 17 </var>
    <var id="x9"> 3 11 12 </var>
    <var id="x10"> 2 3 </var>
    <var id="x11"> 1..3 12 14 17 </var>
    <var id="x12"> 1..3 11 17 </var>
    <var id="x13"> 2 11 14 </var>
    <var id="x14"> 2 3 11 12 </var>
    <var id="x15"> 2 3 9 17 </var>
    <var id="x16"> 0 2 3 6 9 </var>
    <var id="x17"> 2 3 17 </var>
    <var id="x18"> 2 3 5 17 </var>
    <var id="x19"> 0 6 9 13 17 </var>
    <var id="x20"> 0 2 5 9 </var>
    <var id="x21"> 0 3 5 6 </var>
    <var id="x22"> 2 3 5 6 </var>
    <var id="x23"> 3 6 16 </var>
    <var id="x24"> 3 4 11 14 16 </var>
    <var id="x25"> 3 7 8 </var>
    <var id="x26"> 3 8 14 </var>
    <var id="x27"> 3 6 7 11 14 16 </var>
    <var id="x28"> 4 7 11 14 </var>
    <var id="x29"> 3 4 6 7 16 </var>
    <var id="x30"> 3 4 6 7 14 16 </var>
    <var id="x31"> 3 9 </var>
    <var id="x32"> 2 3 9 15 16 </var>
    <var id="x33"> 2 8 </var>
    <var id="x34"> 2 3 8 9 </var>
    <var id="x35"> 2 8 15 16 </var>
    <var id="x36"> 3 5 12 16 </var>
    <var id="x37"> 2 5 9 </var>
    <var id="x38"> 2 3 5 9 12 15 16 </var>
    <var id="x39"> 3 4 11 13 </var>
    <var id="x40"> 2 3 16 </var>
    <var id="x41"> 2 4 8 11 16 </var>
    <var id="x42"> 2 3 7 11 </var>
    <var id="x43"> 3 7 11 16 </var>
    <var id="x44"> 2 4 7 11 </var>
    <var id="x45"> 2 3 11 16 </var>
    <var id="x46"> 3 4 7 16 </var>
    <var id="x47"> 2 4 7 </var>
    <var id="x48"> 1 14 </var>
    <var id="x49"> 1 2 4 6 8 14 </var>
    <var id="x50"> 4 6 </var>
    <var id="x51"> 1 2 7 8 </var>
    <var id="x52"> 1 2 7 8 </var>
    <var id="x53"> 2 4 6 8 </var>
    <var id="x54"> 2 5 </var>
    <var id="x55"> 2 3 9 10 </var>
    <var id="x56"> 1 3 9..11 </var>
    <var id="x57"> 1..3 17 </var>
    <var id="x58"> 3 11 </var>
    <var id="x59"> 9 17 </var>
    <var id="x60"> 2 3 9 11 </var>
    <var id="x61"> 2 3 </var>
    <var id="x62"> 2..4 10 </var>
    <var id="x63"> 2 4 6 14 </var>
    <var id="x64"> 0 3 4 6 10 </var>
    <var id="x65"> 0 2 3 6 10 </var>
    <var id="x66"> 2..4 14 </var>
    <var id="x67"> 0 2 3 7 </var>
    <var id="x68"> 2 3 14 </var>
    <var id="x69"> 2 3 7 </var>
    <var id="x70"> 2 10 </var>
    <var id="x71"> 0 10 </var>
    <var id="x72"> 0 6 10 </var>
    <var id="x73"> 0 2 6 10 15 16 </var>
    <var id="x74"> 5 6 16 </var>
    <var id="x75"> 0 6 8 15 16 </var>
    <var id="x76"> 0 2 5 </var>
    <var id="x77"> 2 5 6 16 </var>
    <var id="x78"> 2 11 14 16 17 </var>
    <var id="x79"> 1 2 11 17 </var>
    <var id="x80"> 1 2 </var>
    <var id="x81"> 1 2 12 14 17 </var>
    <var id="x82"> 1 2 11 15 17 </var>
    <var id="x83"> 11 12 14 16 </var>
    <var id="x84"> 15..17 </var>
    <var id="x85"> 12 16 </var>
    <var id="x86"> 0 1 13 </var>
    <var id="x87"> 1 2 6 13 </var>
    <var id="x88"> 0 6 12 13 </var>
    <var id="x89"> 1 2 </var>
    <var id="x90"> 0..2 13 </var>
    <var id="x91"> 0 6 12 16 </var>
    <var id="x92"> 2 6 16 </var>
    <var id="x93"> 2 9 13 </var>
    <var id="x94"> 0 9 11 13 14 </var>
    <var id="x95"> 2 11 14 17 </var>
    <var id="x96"> 2 11 17 </var>
    <var id="x97"> 2 5 11 17 </var>
    <var id="x98"> 0 9 13 17 </var>
    <var id="x99"> 0 5 </var>
    <var id="x100"> 2 5 14 </var>
    <var id="x101"> 3 4 7 13 </var>
    <var id="x102"> 3 4 17 </var>
    <var id="x103"> 4 13 17 </var>
    <var id="x104"> 4 11 15 17 </var>
    <var id="x105"> 3 5 7 11 15 17 </var>
    <var id="x106"> 13 15 17 </var>
    <var id="x107"> 3 5 11 15 </var>
    <var id="x108"> 3..5 7 </var>
    <var id="x109"> 3 4 9 10 12 </var>
    <var id="x110"> 3 4 9 10 </var>
    <var id="x111"> 4 14 </var>
    <var id="x112"> 3 4 11 14 </var>
    <var id="x113"> 10 11 </var>
    <var id="x114"> 4 11 </var>
    <var id="x115"> 3 11 12 14 </var>
    <var id="x116"> 0 3 4 12 </var>
    <var id="x117"> 2 3 7 9 12 </var>
    <var id="x118"> 1 2 7 </var>
    <var id="x119"> 1..3 12 </var>
    <var id="x120"> 1..3 7 </var>
    <var id="x121"> 3 7 12 16 </var>
    <var id="x122"> 0 9 16 </var>
    <var id="x123"> 0 2 7 9 </var>
    <var id="x124"> 2 3 9 12 16 </var>
    <var id="x125"> 2..4 7 9 10 </var>
    <var id="x126"> 2..4 9 10 17 </var>
    <var id="x127"> 2 4 17 </var>
    <var id="x128"> 3 4 10 </var>
    <var id="x129"> 2 7 10 17 </var>
    <var id="x130"> 2 3 17 </var>
    <var id="x131"> 2 4 16 17 </var>
    <var id="x132"> 2..4 7 16 </var>
    <var id="x133"> 3 9 10 13 </var>
    <var id="x134"> 3 4 8..10 </var>
    <var id="x135"> 3 4 6 10 13 </var>
    <var id="x136"> 3 6 9 10 15 </var>
    <var id="x137"> 3 4 </var>
    <var id="x138"> 3 8 9 13 </var>
    <var id="x139"> 6 8 9 13 15 </var>
    <var id="x140"> 3 9 15 </var>
  </variables>
  <constraints>
    <group>
      <allDifferent> %... </allDifferent>
      <args> x0 x1 x2 x3 x4 x5 x6 x7 </args>
      <args> x8 x9 x10 x11 x12 x13 x14 </args>
      <args> x15 x16 x17 x18 x19 x20 x21 x22 </args>
      <args> x23 x24 x25 x26 x27 x28 x29 x30 </args>
      <args> x31 x32 x33 x34 x35 x36 x37 x38 </args>
      <args> x39 x40 x41 x42 x43 x44 x45 x46 </args>
      <args> x47 x48 x49 x50 x51 x52 x53 x54 </args>
      <args> x55 x56 x57 x58 x59 x60 x61 </args>
      <args> x62 x63 x64 x65 x66 x67 x68 x69 </args>
      <args> x70 x71 x72 x73 x74 x75 x76 x77 </args>
      <args> x78 x79 x80 x81 x82 x83 x84 x85 </args>
      <args> x86 x87 x88 x89 x90 x91 x92 </args>
      <args> x93 x94 x95 x96 x97 x98 x99 x100 </args>
      <args> x101 x102 x103 x104 x105 x106 x107 x108 </args>
      <args> x109 x110 x111 x112 x113 x114 x115 x116 </args>
      <args> x117 x118 x119 x120 x121 x122 x123 x124 </args>
      <args> x125 x126 x127 x128 x129 x130 x131 x132 </args>
      <args> x133 x134 x135 x136 x137 x138 x139 x140 </args>
      <args> x47 x55 x70 x93 x101 x109 x117 x125 </args>
      <args> x0 x31 x48 x56 x71 x86 x94 x133 </args>
      <args> x1 x15 x62 x102 x110 x126 x134 </args>
      <args> x2 x8 x49 x63 x87 x103 x111 x127 </args>
      <args> x9 x39 x50 x64 x72 x88 x128 x135 </args>
      <args> x10 x16 x23 x32 x40 x65 x73 x136 </args>
      <args> x17 x24 x66 x78 x95 x112 x137 </args>
      <args> x33 x51 x79 x89 x113 x118 x129 </args>
      <args> x3 x25 x34 x52 x67 x80 x90 x138 </args>
      <args> x4 x11 x26 x57 x68 x81 x119 x130 </args>
      <args> x5 x35 x41 x53 x96 x104 x114 x131 </args>
      <args> x12 x18 x42 x69 x82 x97 x105 x120 </args>
      <args> x27 x36 x43 x58 x74 x83 x115 x121 </args>
      <args> x19 x59 x75 x84 x98 x106 x122 x139 </args>
      <args> x6 x13 x20 x28 x37 x44 x76 x123 </args>
      <args> x14 x38 x45 x54 x60 x107 x124 x140 </args>
      <args> x7 x21 x29 x46 x85 x91 x99 x116 </args>
      <args> x22 x30 x61 x77 x92 x100 x108 x132 </args>
    </group>
  </constraints>
</instance>

